NAME : CMT1 solved with length 1191.2773447486654
TYPE : TOUR
DIMENSION : 51
TOUR_SECTION
41 20 42 1 -1
43 18 45 38 1 -1
1 14 -1
1 19 5 -1
26 15 1 -1
46 11 34 16 1 -1
48 1 -1
1 47 13 -1
1 6 39 -1
1 28 49 7 -1
1 24 25 8 -1
31 10 50 1 -1
1 12 33 2 -1
1 35 51 40 -1
1 44 27 9 -1
1 3 17 -1
32 4 29 23 1 -1
1 22 30 21 -1
1 36 37 -1
-1
EOF